\ Model x1_copy
\ LP format - for model browsing. Use MPS format to capture full model detail.
Minimize
 
Subject To
 c_e_x3442_: - 0.0182482875908947 x555 - 0.0182482875908947 x633
   - 0.0161554944214035 x711 - 0.0161554944214035 x789 - 0.027 x867
   - 0.0174928556845359 x945 - 0.0349857113690718 x1023
   - 0.0283019433961698 x1101 - 0.03 x1179 - 0.015 x1257
   - 0.0268328157299975 x1335 - 0.0403608721412211 x1413
   - 0.0174928556845359 x1491 - 0.015 x1569 - 0.0258069758011279 x1647
   - 0.032310988842807 x1725 - 0.0161554944214035 x1803
   - 0.0349857113690718 x1881 - 0.032310988842807 x1959 - 0.03 x2037
   + 180 x2117 + 225 x2169 + 360 x2221 + 180 x2273 + 315 x2325 + x3443
   = 1400
 c_u_x3487_: x3443 <= 1386.4
 c_e_x3552_: x2103 = 0
 c_u_x3553_: - x2103 + x2105 <= 0.2
 c_u_x3554_: - x2105 + x2107 <= 0.2
 c_u_x3555_: - x2107 + x2109 <= 0.2
 c_u_x3556_: - x2109 + x2111 <= 0.2
 c_u_x3557_: - x2111 + x2113 <= 0.2
 c_u_x3558_: - x2113 + x2115 <= 0.2
 c_u_x3559_: - x2115 + x2117 <= 0.2
 c_e_x3578_: x2155 = 0
 c_u_x3579_: - x2155 + x2157 <= 0.2
 c_u_x3580_: - x2157 + x2159 <= 0.2
 c_u_x3581_: - x2159 + x2161 <= 0.2
 c_u_x3582_: - x2161 + x2163 <= 0.2
 c_u_x3583_: - x2163 + x2165 <= 0.2
 c_u_x3584_: - x2165 + x2167 <= 0.2
 c_u_x3585_: - x2167 + x2169 <= 0.2
 c_e_x3604_: x2207 = 0
 c_u_x3605_: - x2207 + x2209 <= 0.2
 c_u_x3606_: - x2209 + x2211 <= 0.2
 c_u_x3607_: - x2211 + x2213 <= 0.2
 c_u_x3608_: - x2213 + x2215 <= 0.2
 c_u_x3609_: - x2215 + x2217 <= 0.2
 c_u_x3610_: - x2217 + x2219 <= 0.2
 c_u_x3611_: - x2219 + x2221 <= 0.2
 c_e_x3630_: x2259 = 0
 c_u_x3631_: - x2259 + x2261 <= 0.2
 c_u_x3632_: - x2261 + x2263 <= 0.2
 c_u_x3633_: - x2263 + x2265 <= 0.2
 c_u_x3634_: - x2265 + x2267 <= 0.2
 c_u_x3635_: - x2267 + x2269 <= 0.2
 c_u_x3636_: - x2269 + x2271 <= 0.2
 c_u_x3637_: - x2271 + x2273 <= 0.2
 c_e_x3656_: x2311 = 0
 c_u_x3657_: - x2311 + x2313 <= 0.2
 c_u_x3658_: - x2313 + x2315 <= 0.2
 c_u_x3659_: - x2315 + x2317 <= 0.2
 c_u_x3660_: - x2317 + x2319 <= 0.2
 c_u_x3661_: - x2319 + x2321 <= 0.2
 c_u_x3662_: - x2321 + x2323 <= 0.2
 c_u_x3663_: - x2323 + x2325 <= 0.2
Bounds
 x3443 free
Binaries
 x2103 x2105 x2107 x2109 x2111 x2113 x2115 x2117 x2155 x2157 x2159 x2161
 x2163 x2165 x2167 x2169 x2207 x2209 x2211 x2213 x2215 x2217 x2219 x2221
 x2259 x2261 x2263 x2265 x2267 x2269 x2271 x2273 x2311 x2313 x2315 x2317
 x2319 x2321 x2323 x2325
End
